GLPSOL--GLPK LP/MIP Solver 5.0
Parameter(s) specified in the command line:
 --lp ./Instances/small/optimizedinstance51.lp -o ./Instances/small/solutions/optimizedinstance51.out
 --log ./Instances/small/solutions/optimizedinstance51.glplog
Reading problem data from './Instances/small/optimizedinstance51.lp'...
373 rows, 375 columns, 33881 non-zeros
375 integer variables, all of which are binary
753 lines were read
GLPK Integer Optimizer 5.0
373 rows, 375 columns, 33881 non-zeros
375 integer variables, all of which are binary
Preprocessing...
373 rows, 375 columns, 33881 non-zeros
375 integer variables, all of which are binary
Scaling...
 A: min|aij| =  1.000e+00  max|aij| =  2.340e+02  ratio =  2.340e+02
GM: min|aij| =  6.544e-02  max|aij| =  1.528e+01  ratio =  2.335e+02
EQ: min|aij| =  4.296e-03  max|aij| =  1.000e+00  ratio =  2.327e+02
2N: min|aij| =  3.906e-03  max|aij| =  1.500e+00  ratio =  3.840e+02
Constructing initial basis...
Size of triangular part is 373
Solving LP relaxation...
GLPK Simplex Optimizer 5.0
373 rows, 375 columns, 33881 non-zeros
*     0: obj =  -0.000000000e+00 inf =   0.000e+00 (375)
*   325: obj =   2.243481270e+03 inf =   0.000e+00 (0) 1
OPTIMAL LP SOLUTION FOUND
Integer optimization begins...
Long-step dual simplex will be used
+   325: mip =     not found yet <=              +inf        (1; 0)
+   762: >>>>>   8.500000000e+01 <=   2.213000000e+03        (104; 0)
+  1412: mip =   8.500000000e+01 <=   2.208000000e+03        (226; 4)
+  1745: mip =   8.500000000e+01 <=   2.202000000e+03        (296; 5)
+  2001: mip =   8.500000000e+01 <=   2.202000000e+03        (377; 5)
+  2407: >>>>>   8.900000000e+01 <=   2.202000000e+03        (475; 6)
+  3037: mip =   8.900000000e+01 <=   2.201000000e+03        (567; 12)
+  3514: mip =   8.900000000e+01 <=   2.198000000e+03        (656; 13)
+  4124: mip =   8.900000000e+01 <=   2.186000000e+03        (756; 15)
+  4547: mip =   8.900000000e+01 <=   2.186000000e+03        (852; 16)
+  4970: mip =   8.900000000e+01 <=   2.180000000e+03        (946; 17)
+  5450: mip =   8.900000000e+01 <=   2.177000000e+03        (1031; 18)
+  6007: mip =   8.900000000e+01 <=   2.173000000e+03        (1120; 20)
Time used: 60.0 secs.  Memory used: 6.3 Mb.
+  6173: mip =   8.900000000e+01 <=   2.173000000e+03        (1194; 20)
+  6576: >>>>>   9.500000000e+01 <=   2.172000000e+03        (1271; 21)
+  6917: mip =   9.500000000e+01 <=   2.172000000e+03        (1341; 43)
+  7345: mip =   9.500000000e+01 <=   2.171000000e+03        (1442; 44)
+  7888: mip =   9.500000000e+01 <=   2.168000000e+03        (1547; 46)
+  8053: mip =   9.500000000e+01 <=   2.168000000e+03        (1623; 46)
+  8655: mip =   9.500000000e+01 <=   2.156000000e+03        (1713; 48)
+  9028: mip =   9.500000000e+01 <=   2.146000000e+03        (1793; 49)
+  9354: mip =   9.500000000e+01 <=   2.145000000e+03        (1883; 50)
+  9791: mip =   9.500000000e+01 <=   2.137000000e+03        (1982; 51)
+ 10085: mip =   9.500000000e+01 <=   2.134000000e+03        (2071; 52)
+ 10625: mip =   9.500000000e+01 <=   2.126000000e+03        (2169; 53)
Time used: 120.0 secs.  Memory used: 7.0 Mb.
+ 11266: mip =   9.500000000e+01 <=   2.124000000e+03        (2257; 55)
+ 11675: mip =   9.500000000e+01 <=   2.118000000e+03        (2355; 56)
+ 11723: >>>>>   1.010000000e+02 <=   2.118000000e+03        (2374; 56)
+ 12259: mip =   1.010000000e+02 <=   2.107000000e+03        (2432; 103)
+ 12561: mip =   1.010000000e+02 <=   2.106000000e+03        (2522; 104)
+ 13006: mip =   1.010000000e+02 <=   2.098000000e+03        (2599; 105)
+ 13284: mip =   1.010000000e+02 <=   2.095000000e+03        (2670; 106)
+ 13770: mip =   1.010000000e+02 <=   2.094000000e+03        (2774; 107)
+ 14203: mip =   1.010000000e+02 <=   2.094000000e+03        (2878; 108)
+ 14287: >>>>>   1.030000000e+02 <=   2.094000000e+03        (2908; 108)
+ 14809: mip =   1.030000000e+02 <=   2.089000000e+03        (3004; 117)
+ 15164: mip =   1.030000000e+02 <=   2.086000000e+03        (3113; 118)
+ 15863: mip =   1.030000000e+02 <=   2.068000000e+03        (3207; 120)
Time used: 180.1 secs.  Memory used: 7.9 Mb.
+ 16345: mip =   1.030000000e+02 <=   2.055000000e+03        (3307; 121)
+ 16796: mip =   1.030000000e+02 <=   2.045000000e+03        (3418; 123)
+ 17101: mip =   1.030000000e+02 <=   2.041000000e+03        (3501; 123)
+ 17445: mip =   1.030000000e+02 <=   2.033000000e+03        (3562; 124)
+ 17719: mip =   1.030000000e+02 <=   2.033000000e+03        (3619; 125)
+ 18037: mip =   1.030000000e+02 <=   2.019000000e+03        (3677; 126)
+ 18502: mip =   1.030000000e+02 <=   2.005000000e+03        (3745; 127)
+ 18810: mip =   1.030000000e+02 <=   2.005000000e+03        (3815; 128)
+ 19156: mip =   1.030000000e+02 <=   1.999000000e+03        (3893; 129)
+ 19471: mip =   1.030000000e+02 <=   1.994000000e+03        (3982; 130)
+ 20034: mip =   1.030000000e+02 <=   1.985000000e+03        (4071; 132)
+ 20446: mip =   1.030000000e+02 <=   1.984000000e+03        (4152; 133)
Time used: 240.1 secs.  Memory used: 8.6 Mb.
+ 20988: mip =   1.030000000e+02 <=   1.972000000e+03        (4241; 135)
+ 21171: mip =   1.030000000e+02 <=   1.972000000e+03        (4313; 135)
+ 21673: mip =   1.030000000e+02 <=   1.962000000e+03        (4408; 137)
+ 22328: mip =   1.030000000e+02 <=   1.948000000e+03        (4485; 139)
+ 22697: mip =   1.030000000e+02 <=   1.939000000e+03        (4566; 140)
+ 23126: mip =   1.030000000e+02 <=   1.938000000e+03        (4653; 141)
+ 23646: mip =   1.030000000e+02 <=   1.920000000e+03        (4743; 143)
+ 24244: mip =   1.030000000e+02 <=   1.908000000e+03        (4819; 145)
+ 24707: mip =   1.030000000e+02 <=   1.903000000e+03        (4902; 146)
+ 25031: mip =   1.030000000e+02 <=   1.890000000e+03        (4992; 147)
+ 25862: mip =   1.030000000e+02 <=   1.886000000e+03        (5083; 150)
+ 26450: mip =   1.030000000e+02 <=   1.881000000e+03        (5178; 152)
Time used: 300.1 secs.  Memory used: 9.6 Mb.
+ 26899: mip =   1.030000000e+02 <=   1.868000000e+03        (5271; 153)
+ 27469: mip =   1.030000000e+02 <=   1.863000000e+03        (5364; 155)
+ 27773: mip =   1.030000000e+02 <=   1.853000000e+03        (5454; 156)
+ 28112: mip =   1.030000000e+02 <=   1.844000000e+03        (5532; 157)
+ 28637: mip =   1.030000000e+02 <=   1.837000000e+03        (5629; 159)
+ 29158: mip =   1.030000000e+02 <=   1.826000000e+03        (5738; 161)
+ 29710: mip =   1.030000000e+02 <=   1.823000000e+03        (5826; 163)
+ 30063: mip =   1.030000000e+02 <=   1.819000000e+03        (5906; 164)
+ 30373: mip =   1.030000000e+02 <=   1.812000000e+03        (5995; 165)
+ 30881: mip =   1.030000000e+02 <=   1.805000000e+03        (6082; 167)
+ 31378: mip =   1.030000000e+02 <=   1.805000000e+03        (6168; 168)
+ 31860: mip =   1.030000000e+02 <=   1.797000000e+03        (6266; 170)
Time used: 360.1 secs.  Memory used: 10.4 Mb.
+ 32271: mip =   1.030000000e+02 <=   1.786000000e+03        (6348; 171)
+ 32566: mip =   1.030000000e+02 <=   1.774000000e+03        (6427; 172)
+ 33260: mip =   1.030000000e+02 <=   1.764000000e+03        (6519; 175)
+ 33935: mip =   1.030000000e+02 <=   1.750000000e+03        (6611; 177)
+ 34487: mip =   1.030000000e+02 <=   1.745000000e+03        (6702; 179)
+ 34968: mip =   1.030000000e+02 <=   1.722000000e+03        (6788; 181)
+ 35592: mip =   1.030000000e+02 <=   1.700000000e+03        (6880; 183)
+ 35920: mip =   1.030000000e+02 <=   1.681000000e+03        (6963; 184)
+ 36319: mip =   1.030000000e+02 <=   1.678000000e+03        (7060; 186)
+ 36721: mip =   1.030000000e+02 <=   1.678000000e+03        (7152; 187)
+ 37397: mip =   1.030000000e+02 <=   1.675000000e+03        (7257; 190)
+ 37772: mip =   1.030000000e+02 <=   1.671000000e+03        (7350; 191)
Time used: 420.1 secs.  Memory used: 11.2 Mb.
+ 38198: mip =   1.030000000e+02 <=   1.653000000e+03        (7421; 193)
+ 38763: mip =   1.030000000e+02 <=   1.645000000e+03        (7503; 195)
+ 39260: mip =   1.030000000e+02 <=   1.631000000e+03        (7608; 197)
+ 39698: mip =   1.030000000e+02 <=   1.627000000e+03        (7689; 199)
+ 40506: mip =   1.030000000e+02 <=   1.622000000e+03        (7861; 202)
+ 41146: mip =   1.030000000e+02 <=   1.616000000e+03        (8010; 205)
+ 41722: mip =   1.030000000e+02 <=   1.611000000e+03        (8107; 207)
+ 42222: mip =   1.030000000e+02 <=   1.591000000e+03        (8192; 209)
+ 42811: mip =   1.030000000e+02 <=   1.583000000e+03        (8282; 212)
+ 43020: mip =   1.030000000e+02 <=   1.580000000e+03        (8364; 213)
+ 43268: mip =   1.030000000e+02 <=   1.577000000e+03        (8437; 214)
+ 44027: mip =   1.030000000e+02 <=   1.566000000e+03        (8547; 217)
Time used: 480.2 secs.  Memory used: 12.2 Mb.
+ 44503: mip =   1.030000000e+02 <=   1.562000000e+03        (8657; 219)
+ 44902: mip =   1.030000000e+02 <=   1.552000000e+03        (8730; 221)
+ 45193: mip =   1.030000000e+02 <=   1.549000000e+03        (8835; 222)
+ 45767: mip =   1.030000000e+02 <=   1.549000000e+03        (8925; 225)
+ 46000: mip =   1.030000000e+02 <=   1.545000000e+03        (8999; 226)
+ 46316: mip =   1.030000000e+02 <=   1.543000000e+03        (9074; 227)
+ 46713: mip =   1.030000000e+02 <=   1.541000000e+03        (9151; 229)
+ 47160: mip =   1.030000000e+02 <=   1.536000000e+03        (9241; 231)
+ 47416: mip =   1.030000000e+02 <=   1.536000000e+03        (9310; 232)
+ 48002: mip =   1.030000000e+02 <=   1.534000000e+03        (9397; 235)
+ 48225: mip =   1.030000000e+02 <=   1.532000000e+03        (9466; 236)
+ 48436: mip =   1.030000000e+02 <=   1.532000000e+03        (9538; 237)
Time used: 540.2 secs.  Memory used: 12.8 Mb.
+ 48828: mip =   1.030000000e+02 <=   1.531000000e+03        (9602; 239)
+ 49086: mip =   1.030000000e+02 <=   1.531000000e+03        (9667; 240)
+ 49672: mip =   1.030000000e+02 <=   1.528000000e+03        (9743; 243)
+ 49876: mip =   1.030000000e+02 <=   1.527000000e+03        (9818; 244)
+ 50504: mip =   1.030000000e+02 <=   1.526000000e+03        (9971; 247)
+ 51271: mip =   1.030000000e+02 <=   1.524000000e+03        (10144; 250)
+ 51929: mip =   1.030000000e+02 <=   1.520000000e+03        (10303; 253)
+ 52483: mip =   1.030000000e+02 <=   1.519000000e+03        (10393; 256)
+ 52940: mip =   1.030000000e+02 <=   1.518000000e+03        (10469; 258)
+ 53446: mip =   1.030000000e+02 <=   1.515000000e+03        (10579; 260)
+ 53889: mip =   1.030000000e+02 <=   1.513000000e+03        (10691; 262)
+ 54315: mip =   1.030000000e+02 <=   1.510000000e+03        (10811; 264)
Time used: 600.2 secs.  Memory used: 14.0 Mb.
+ 54760: mip =   1.030000000e+02 <=   1.508000000e+03        (10932; 266)
+ 55238: mip =   1.030000000e+02 <=   1.505000000e+03        (11054; 268)
+ 55844: mip =   1.030000000e+02 <=   1.504000000e+03        (11168; 271)
+ 56208: mip =   1.030000000e+02 <=   1.503000000e+03        (11286; 272)
+ 56624: mip =   1.030000000e+02 <=   1.500000000e+03        (11400; 274)
+ 57160: mip =   1.030000000e+02 <=   1.500000000e+03        (11499; 277)
+ 57537: mip =   1.030000000e+02 <=   1.497000000e+03        (11601; 279)
+ 57971: mip =   1.030000000e+02 <=   1.495000000e+03        (11722; 281)
+ 58259: mip =   1.030000000e+02 <=   1.495000000e+03        (11836; 282)
+ 58832: mip =   1.030000000e+02 <=   1.493000000e+03        (11936; 285)
+ 59241: mip =   1.030000000e+02 <=   1.491000000e+03        (12018; 287)
+ 59651: mip =   1.030000000e+02 <=   1.491000000e+03        (12107; 289)
Time used: 660.3 secs.  Memory used: 14.9 Mb.
+ 60135: mip =   1.030000000e+02 <=   1.490000000e+03        (12192; 291)
+ 60519: mip =   1.030000000e+02 <=   1.489000000e+03        (12289; 293)
+ 60931: mip =   1.030000000e+02 <=   1.487000000e+03        (12361; 295)
+ 61363: mip =   1.030000000e+02 <=   1.485000000e+03        (12443; 297)
+ 61851: mip =   1.030000000e+02 <=   1.484000000e+03        (12538; 299)
+ 62495: mip =   1.030000000e+02 <=   1.482000000e+03        (12622; 302)
+ 62914: mip =   1.030000000e+02 <=   1.482000000e+03        (12702; 304)
+ 63369: mip =   1.030000000e+02 <=   1.481000000e+03        (12793; 306)
+ 63728: mip =   1.030000000e+02 <=   1.480000000e+03        (12884; 308)
+ 64288: mip =   1.030000000e+02 <=   1.480000000e+03        (12978; 311)
+ 64554: mip =   1.030000000e+02 <=   1.479000000e+03        (13058; 312)
+ 65107: mip =   1.030000000e+02 <=   1.475000000e+03        (13146; 315)
Time used: 720.4 secs.  Memory used: 15.7 Mb.
+ 65374: mip =   1.030000000e+02 <=   1.475000000e+03        (13214; 316)
+ 65920: mip =   1.030000000e+02 <=   1.474000000e+03        (13310; 319)
+ 66036: >>>>>   1.040000000e+02 <=   1.474000000e+03        (13354; 319)
+ 66433: >>>>>   1.100000000e+02 <=   1.473000000e+03        (13404; 366)
+ 67128: mip =   1.100000000e+02 <=   1.471000000e+03        (13381; 607)
+ 67597: mip =   1.100000000e+02 <=   1.470000000e+03        (13482; 609)
+ 68548: mip =   1.100000000e+02 <=   1.465000000e+03        (13698; 614)
+ 69004: mip =   1.100000000e+02 <=   1.465000000e+03        (13834; 616)
+ 69600: mip =   1.100000000e+02 <=   1.464000000e+03        (13953; 619)
+ 70040: mip =   1.100000000e+02 <=   1.464000000e+03        (14074; 621)
+ 70621: mip =   1.100000000e+02 <=   1.461000000e+03        (14200; 624)
+ 71239: mip =   1.100000000e+02 <=   1.460000000e+03        (14320; 627)
+ 71675: mip =   1.100000000e+02 <=   1.458000000e+03        (14429; 629)
Time used: 780.4 secs.  Memory used: 16.7 Mb.
+ 72268: mip =   1.100000000e+02 <=   1.455000000e+03        (14552; 633)
+ 72936: mip =   1.100000000e+02 <=   1.454000000e+03        (14718; 635)
